proyfinal/src/viki/013/experimentInOfficeAgust.take6.output/7af9f385-7360-40a2-824c-1c4eecb91f66.als.dat
{'cnf.clauses': '118081',
 'cnf.totvars': '69608',
 'conflict literals': '145',
 'conflicts': '30',
 'decisions': '3466',
 'memused.mb': '17.47',
 'outcome': 'UNSAT',
 'propagations': '67842',
 'restarts': '1',
 'solver.msecs': 34,
 'task.msecs': 87}
