proyfinal/src/viki/013/experimentInOfficeAgust.take6.output/7af9f385-7360-40a2-824c-1c4eecb91f66.als.out
Reading from standard input... Use '--help' for help.
============================[ Problem Statistics ]=============================
|                                                                             |
|  Number of variables:         69608                                         |
|  Number of clauses:          118081                                         |
|  Parse time:                   0.03 s                                       |
|                                                                             |
============================[ Search Statistics ]==============================
| Conflicts |          ORIGINAL         |          LEARNT          | Progress |
|           |    Vars  Clauses Literals |    Limit  Clauses Lit/Cl |          |
===============================================================================
===============================================================================
restarts              : 1
conflicts             : 30             (858 /sec)
decisions             : 3466           (0.00 % random) (99136 /sec)
propagations          : 67842          (1940450 /sec)
conflict literals     : 145            (17.14 % deleted)
Memory used           : 17.47 MB
CPU time              : 0.034962 s

UNSATISFIABLE
